0 4922
2401 4831
4802 4745
7203 4657
9604 4587
12005 4534
14406 4473
16807 4428
19208 4380
21609 4346
24010 4322
26411 4278
28812 4229
31213 4206
33614 4198
36015 4182
38416 4166
40817 4150
43218 4140
45619 4130
48020 4121
50421 4118
52822 4117
55223 4111
57624 4103
60025 4100
62426 4095
64827 4088
67228 4087
69629 4079
72030 4074
74431 4068
76832 4058
79233 4057
84035 4056
86436 4048
144060 4045
156065 4041
158466 4037
160867 4026
163268 4025
165669 4024
168070 4023
206486 4021
216090 4018
218491 4013
220892 4011
292922 4006
304927 4005
307328 4002
309729 3999
324135 3997
326536 3996
328937 3993
456190 3990
1054039 3989
1090054 3982
